&BANDS
   prefix  = 'svo',
   outdir  = './QE_tmp/',
   filband = 'svo_bands.dat'
   lsym    = .false.,
/
