&inputpp 
   prefix             = 'svo'
   outdir             = './QE_tmp/',
   seedname           = 'svo'
   write_mmn          = .true.
   write_amn          = .true.
   write_unk          = .false.
/
