SYSTEM = LuNiO3-d-pd
ISMEAR =  0
SIGMA =  0.001
EDIFF = 1E-8
ENCUT=500
NCORE=6
ENCUT=500
LMAXMIX=4
LORBIT=11
