SYSTEM = LuNiO3-p-pd
ISMEAR =  0
SIGMA =  0.001
EDIFF = 1E-8
ALGO = Exact ; NELM=1
LOPTICS = .TRUE.
LWAVE = .TRUE.
NBANDS =576
NCORE=6
ENCUT=500
LMAXMIX=4
LORBIT=11
