SYSTEM = LuNiO3-p-dp
ENCUT=500
ISMEAR =  0
SIGMA =  0.001
EDIFF = 1E-8
NBANDS =576
ALGO = CRPA
NTARGET_STATES = 1 2 3 4 5 6 7 8 9 10 11 12 13 14 15 16 17 18 19 20  
LWAVE = .FALSE.
NCSHMEM=1
LMAXMIX=4
