LuNiO3
1.0000000000000000
     5.1105408789665123    0.0000000000000000    0.0000000000000000
     0.0000000000000001    5.5527078649820627    0.0000000000000000
     0.0000000000000000    0.0000000000000000    7.2341806220978615
   Lu   Ni   O 
     4     4    12
Direct
  0.9759105464437805  0.0837493378691365  0.2500000000000000
  0.0240894535562199  0.9162506621308635  0.7500000000000000
  0.4759105464437799  0.4162506621308630  0.7500000000000000
  0.5240894535562195  0.5837493378691365  0.2500000000000000
  0.5000000000000000  0.0000000000000000 -0.0000000000000000
  0.0000000000000000  0.5000000000000000  0.5000000000000000
  0.0000000000000000  0.5000000000000000 -0.0000000000000000
  0.5000000000000000  0.0000000000000000  0.5000000000000000
0.6885807571709575   0.3070354669289035   0.0551031670677293
0.6885807571709575   0.3070354669289035   0.4448968289322705
0.3114192428290425   0.6929645040710986   0.9448968589322735
0.3114192428290425   0.6929645040710986   0.5551031410677265
0.1885807571709574   0.1929645330710965   0.9448968589322735
0.1885807571709574   0.1929645330710965   0.5551031410677265
0.8114192428290425   0.8070354959289014   0.0551031670677293
0.8114192428290425   0.8070354959289014   0.4448968289322705
0.1164428760113850   0.4611236606849595   0.2500000000000000
0.6164428690113808   0.0388763393150402   0.7500000000000000
0.8835571309886192   0.5388763093150448   0.7500000000000000
0.3835571309886195   0.9611236906849552   0.2500000000000000
