num_wann =   56
num_bands = 56
exclude_bands: 1-36,93-576

iprint = 2
num_iter = 400
conv_window = 5
conv_tol = 1e-11
conv_noise_amp = 1

dis_win_min = -2.5
dis_win_max = 6.6
dis_num_iter = 1000
dis_conv_tol = 1e-9
dis_conv_window = 3

hr_plot = true

bands_plot = true
begin kpoint_path
Z 0.0 0.0 0.5 G 0.0 0.0 0.0
G 0.0 0.0 0.0  X 0.5 0.0 0.0
X 0.5 0.0 0.0  M 0.5 0.5 0.0
M 0.5 0.5 0.0  G 0.0 0.0 0.0
G 0.0 0.0 0.0 Y 0.0 0.5 0.0
end kpoint_path
bands_num_points = 15

guiding_centres=true
begin projections
Ni:l=2
O:l=1
end projections
begin unit_cell_cart
     5.1105409     0.0000000     0.0000000
     0.0000000     5.5527079     0.0000000
     0.0000000     0.0000000     7.2341806
end unit_cell_cart

begin atoms_cart
Lu       4.9874307     0.4650356     1.8085452
Lu       0.1231101     5.0876723     5.4256355
Lu       2.4321603     2.3113183     5.4256355
Lu       2.6783806     3.2413895     1.8085452
Ni       2.5552704     0.0000000     0.0000000
Ni       0.0000000     2.7763539     3.6170903
Ni       0.0000000     2.7763539     0.0000000
Ni       2.5552704     0.0000000     3.6170903
O        3.5190201     1.7048783     0.3986263
O        3.5190201     1.7048783     3.2184640
O        1.5915208     3.8478295     6.8355545
O        1.5915208     3.8478295     4.0157164
O        0.9637497     1.0714757     6.8355545
O        0.9637497     1.0714757     4.0157164
O        4.1467912     4.4812323     0.3986263
O        4.1467912     4.4812323     3.2184640
O        0.5950861     2.5604850     1.8085452
O        3.1503565     0.2158690     5.4256355
O        4.5154548     2.9922227     5.4256355
O        1.9601844     5.3368391     1.8085452
end atoms_cart


mp_grid =     7     7     5

begin kpoints
      0.000000000000      0.000000000000      0.000000000000
      0.142857142857      0.000000000000      0.000000000000
      0.285714285714      0.000000000000      0.000000000000
      0.428571428571      0.000000000000      0.000000000000
      0.000000000000      0.142857142857      0.000000000000
      0.142857142857      0.142857142857      0.000000000000
      0.285714285714      0.142857142857      0.000000000000
      0.428571428571      0.142857142857      0.000000000000
      0.000000000000      0.285714285714      0.000000000000
      0.142857142857      0.285714285714      0.000000000000
      0.285714285714      0.285714285714      0.000000000000
      0.428571428571      0.285714285714      0.000000000000
      0.000000000000      0.428571428571      0.000000000000
      0.142857142857      0.428571428571      0.000000000000
      0.285714285714      0.428571428571      0.000000000000
      0.428571428571      0.428571428571      0.000000000000
      0.000000000000      0.000000000000      0.200000000000
      0.142857142857      0.000000000000      0.200000000000
      0.285714285714      0.000000000000      0.200000000000
      0.428571428571      0.000000000000      0.200000000000
      0.000000000000      0.142857142857      0.200000000000
      0.142857142857      0.142857142857      0.200000000000
      0.285714285714      0.142857142857      0.200000000000
      0.428571428571      0.142857142857      0.200000000000
      0.000000000000      0.285714285714      0.200000000000
      0.142857142857      0.285714285714      0.200000000000
      0.285714285714      0.285714285714      0.200000000000
      0.428571428571      0.285714285714      0.200000000000
      0.000000000000      0.428571428571      0.200000000000
      0.142857142857      0.428571428571      0.200000000000
      0.285714285714      0.428571428571      0.200000000000
      0.428571428571      0.428571428571      0.200000000000
      0.000000000000      0.000000000000      0.400000000000
      0.142857142857      0.000000000000      0.400000000000
      0.285714285714      0.000000000000      0.400000000000
      0.428571428571      0.000000000000      0.400000000000
      0.000000000000      0.142857142857      0.400000000000
      0.142857142857      0.142857142857      0.400000000000
      0.285714285714      0.142857142857      0.400000000000
      0.428571428571      0.142857142857      0.400000000000
      0.000000000000      0.285714285714      0.400000000000
      0.142857142857      0.285714285714      0.400000000000
      0.285714285714      0.285714285714      0.400000000000
      0.428571428571      0.285714285714      0.400000000000
      0.000000000000      0.428571428571      0.400000000000
      0.142857142857      0.428571428571      0.400000000000
      0.285714285714      0.428571428571      0.400000000000
      0.428571428571      0.428571428571      0.400000000000
     -0.428571428571     -0.000000000000     -0.000000000000
     -0.285714285714     -0.000000000000     -0.000000000000
     -0.142857142857     -0.000000000000     -0.000000000000
     -0.428571428571      0.142857142857     -0.000000000000
     -0.285714285714      0.142857142857     -0.000000000000
     -0.142857142857      0.142857142857     -0.000000000000
     -0.428571428571      0.285714285714     -0.000000000000
     -0.285714285714      0.285714285714     -0.000000000000
     -0.142857142857      0.285714285714     -0.000000000000
     -0.428571428571      0.428571428571     -0.000000000000
     -0.285714285714      0.428571428571     -0.000000000000
     -0.142857142857      0.428571428571     -0.000000000000
     -0.000000000000     -0.428571428571     -0.000000000000
      0.142857142857     -0.428571428571      0.000000000000
      0.285714285714     -0.428571428571      0.000000000000
      0.428571428571     -0.428571428571      0.000000000000
     -0.428571428571     -0.428571428571     -0.000000000000
     -0.285714285714     -0.428571428571     -0.000000000000
     -0.142857142857     -0.428571428571     -0.000000000000
     -0.000000000000     -0.285714285714     -0.000000000000
      0.142857142857     -0.285714285714      0.000000000000
      0.285714285714     -0.285714285714      0.000000000000
      0.428571428571     -0.285714285714      0.000000000000
     -0.428571428571     -0.285714285714     -0.000000000000
     -0.285714285714     -0.285714285714     -0.000000000000
     -0.142857142857     -0.285714285714     -0.000000000000
     -0.000000000000     -0.142857142857     -0.000000000000
      0.142857142857     -0.142857142857      0.000000000000
      0.285714285714     -0.142857142857      0.000000000000
      0.428571428571     -0.142857142857      0.000000000000
     -0.428571428571     -0.142857142857     -0.000000000000
     -0.285714285714     -0.142857142857     -0.000000000000
     -0.142857142857     -0.142857142857     -0.000000000000
     -0.428571428571     -0.000000000000      0.200000000000
     -0.285714285714     -0.000000000000      0.200000000000
     -0.142857142857     -0.000000000000      0.200000000000
     -0.428571428571      0.142857142857      0.200000000000
     -0.285714285714      0.142857142857      0.200000000000
     -0.142857142857      0.142857142857      0.200000000000
     -0.428571428571      0.285714285714      0.200000000000
     -0.285714285714      0.285714285714      0.200000000000
     -0.142857142857      0.285714285714      0.200000000000
     -0.428571428571      0.428571428571      0.200000000000
     -0.285714285714      0.428571428571      0.200000000000
     -0.142857142857      0.428571428571      0.200000000000
     -0.000000000000     -0.428571428571      0.200000000000
      0.142857142857     -0.428571428571      0.200000000000
      0.285714285714     -0.428571428571      0.200000000000
      0.428571428571     -0.428571428571      0.200000000000
     -0.428571428571     -0.428571428571      0.200000000000
     -0.285714285714     -0.428571428571      0.200000000000
     -0.142857142857     -0.428571428571      0.200000000000
     -0.000000000000     -0.285714285714      0.200000000000
      0.142857142857     -0.285714285714      0.200000000000
      0.285714285714     -0.285714285714      0.200000000000
      0.428571428571     -0.285714285714      0.200000000000
     -0.428571428571     -0.285714285714      0.200000000000
     -0.285714285714     -0.285714285714      0.200000000000
     -0.142857142857     -0.285714285714      0.200000000000
     -0.000000000000     -0.142857142857      0.200000000000
      0.142857142857     -0.142857142857      0.200000000000
      0.285714285714     -0.142857142857      0.200000000000
      0.428571428571     -0.142857142857      0.200000000000
     -0.428571428571     -0.142857142857      0.200000000000
     -0.285714285714     -0.142857142857      0.200000000000
     -0.142857142857     -0.142857142857      0.200000000000
     -0.428571428571     -0.000000000000      0.400000000000
     -0.285714285714     -0.000000000000      0.400000000000
     -0.142857142857     -0.000000000000      0.400000000000
     -0.428571428571      0.142857142857      0.400000000000
     -0.285714285714      0.142857142857      0.400000000000
     -0.142857142857      0.142857142857      0.400000000000
     -0.428571428571      0.285714285714      0.400000000000
     -0.285714285714      0.285714285714      0.400000000000
     -0.142857142857      0.285714285714      0.400000000000
     -0.428571428571      0.428571428571      0.400000000000
     -0.285714285714      0.428571428571      0.400000000000
     -0.142857142857      0.428571428571      0.400000000000
     -0.000000000000     -0.428571428571      0.400000000000
      0.142857142857     -0.428571428571      0.400000000000
      0.285714285714     -0.428571428571      0.400000000000
      0.428571428571     -0.428571428571      0.400000000000
     -0.428571428571     -0.428571428571      0.400000000000
     -0.285714285714     -0.428571428571      0.400000000000
     -0.142857142857     -0.428571428571      0.400000000000
     -0.000000000000     -0.285714285714      0.400000000000
      0.142857142857     -0.285714285714      0.400000000000
      0.285714285714     -0.285714285714      0.400000000000
      0.428571428571     -0.285714285714      0.400000000000
     -0.428571428571     -0.285714285714      0.400000000000
     -0.285714285714     -0.285714285714      0.400000000000
     -0.142857142857     -0.285714285714      0.400000000000
     -0.000000000000     -0.142857142857      0.400000000000
      0.142857142857     -0.142857142857      0.400000000000
      0.285714285714     -0.142857142857      0.400000000000
      0.428571428571     -0.142857142857      0.400000000000
     -0.428571428571     -0.142857142857      0.400000000000
     -0.285714285714     -0.142857142857      0.400000000000
     -0.142857142857     -0.142857142857      0.400000000000
     -0.000000000000     -0.000000000000     -0.400000000000
      0.142857142857      0.000000000000     -0.400000000000
      0.285714285714      0.000000000000     -0.400000000000
      0.428571428571      0.000000000000     -0.400000000000
     -0.428571428571     -0.000000000000     -0.400000000000
     -0.285714285714     -0.000000000000     -0.400000000000
     -0.142857142857     -0.000000000000     -0.400000000000
      0.000000000000      0.142857142857     -0.400000000000
      0.142857142857      0.142857142857     -0.400000000000
      0.285714285714      0.142857142857     -0.400000000000
      0.428571428571      0.142857142857     -0.400000000000
     -0.428571428571      0.142857142857     -0.400000000000
     -0.285714285714      0.142857142857     -0.400000000000
     -0.142857142857      0.142857142857     -0.400000000000
      0.000000000000      0.285714285714     -0.400000000000
      0.142857142857      0.285714285714     -0.400000000000
      0.285714285714      0.285714285714     -0.400000000000
      0.428571428571      0.285714285714     -0.400000000000
     -0.428571428571      0.285714285714     -0.400000000000
     -0.285714285714      0.285714285714     -0.400000000000
     -0.142857142857      0.285714285714     -0.400000000000
      0.000000000000      0.428571428571     -0.400000000000
      0.142857142857      0.428571428571     -0.400000000000
      0.285714285714      0.428571428571     -0.400000000000
      0.428571428571      0.428571428571     -0.400000000000
     -0.428571428571      0.428571428571     -0.400000000000
     -0.285714285714      0.428571428571     -0.400000000000
     -0.142857142857      0.428571428571     -0.400000000000
     -0.000000000000     -0.428571428571     -0.400000000000
      0.142857142857     -0.428571428571     -0.400000000000
      0.285714285714     -0.428571428571     -0.400000000000
      0.428571428571     -0.428571428571     -0.400000000000
     -0.428571428571     -0.428571428571     -0.400000000000
     -0.285714285714     -0.428571428571     -0.400000000000
     -0.142857142857     -0.428571428571     -0.400000000000
     -0.000000000000     -0.285714285714     -0.400000000000
      0.142857142857     -0.285714285714     -0.400000000000
      0.285714285714     -0.285714285714     -0.400000000000
      0.428571428571     -0.285714285714     -0.400000000000
     -0.428571428571     -0.285714285714     -0.400000000000
     -0.285714285714     -0.285714285714     -0.400000000000
     -0.142857142857     -0.285714285714     -0.400000000000
     -0.000000000000     -0.142857142857     -0.400000000000
      0.142857142857     -0.142857142857     -0.400000000000
      0.285714285714     -0.142857142857     -0.400000000000
      0.428571428571     -0.142857142857     -0.400000000000
     -0.428571428571     -0.142857142857     -0.400000000000
     -0.285714285714     -0.142857142857     -0.400000000000
     -0.142857142857     -0.142857142857     -0.400000000000
     -0.000000000000     -0.000000000000     -0.200000000000
      0.142857142857      0.000000000000     -0.200000000000
      0.285714285714      0.000000000000     -0.200000000000
      0.428571428571      0.000000000000     -0.200000000000
     -0.428571428571     -0.000000000000     -0.200000000000
     -0.285714285714     -0.000000000000     -0.200000000000
     -0.142857142857     -0.000000000000     -0.200000000000
      0.000000000000      0.142857142857     -0.200000000000
      0.142857142857      0.142857142857     -0.200000000000
      0.285714285714      0.142857142857     -0.200000000000
      0.428571428571      0.142857142857     -0.200000000000
     -0.428571428571      0.142857142857     -0.200000000000
     -0.285714285714      0.142857142857     -0.200000000000
     -0.142857142857      0.142857142857     -0.200000000000
      0.000000000000      0.285714285714     -0.200000000000
      0.142857142857      0.285714285714     -0.200000000000
      0.285714285714      0.285714285714     -0.200000000000
      0.428571428571      0.285714285714     -0.200000000000
     -0.428571428571      0.285714285714     -0.200000000000
     -0.285714285714      0.285714285714     -0.200000000000
     -0.142857142857      0.285714285714     -0.200000000000
      0.000000000000      0.428571428571     -0.200000000000
      0.142857142857      0.428571428571     -0.200000000000
      0.285714285714      0.428571428571     -0.200000000000
      0.428571428571      0.428571428571     -0.200000000000
     -0.428571428571      0.428571428571     -0.200000000000
     -0.285714285714      0.428571428571     -0.200000000000
     -0.142857142857      0.428571428571     -0.200000000000
     -0.000000000000     -0.428571428571     -0.200000000000
      0.142857142857     -0.428571428571     -0.200000000000
      0.285714285714     -0.428571428571     -0.200000000000
      0.428571428571     -0.428571428571     -0.200000000000
     -0.428571428571     -0.428571428571     -0.200000000000
     -0.285714285714     -0.428571428571     -0.200000000000
     -0.142857142857     -0.428571428571     -0.200000000000
     -0.000000000000     -0.285714285714     -0.200000000000
      0.142857142857     -0.285714285714     -0.200000000000
      0.285714285714     -0.285714285714     -0.200000000000
      0.428571428571     -0.285714285714     -0.200000000000
     -0.428571428571     -0.285714285714     -0.200000000000
     -0.285714285714     -0.285714285714     -0.200000000000
     -0.142857142857     -0.285714285714     -0.200000000000
     -0.000000000000     -0.142857142857     -0.200000000000
      0.142857142857     -0.142857142857     -0.200000000000
      0.285714285714     -0.142857142857     -0.200000000000
      0.428571428571     -0.142857142857     -0.200000000000
     -0.428571428571     -0.142857142857     -0.200000000000
     -0.285714285714     -0.142857142857     -0.200000000000
     -0.142857142857     -0.142857142857     -0.200000000000
end kpoints
