SYSTEM = LuNiO3
ENCUT = 500
ISPIN = 1
NBANDS = 128

EDIFF = 1E-08
NELMIN = 30 ! For good convergence of wave functions

!! Smearing procedure
ISMEAR = -5 ! -4 (-5) Tetrahedron (with Bloechl), 0 Gaussian, 1,... Methfessel-Paxton
SIGMA = 0.01

NCORE = 4
KPAR = 4

LMAXMIX = 4

!! write WAVECAR, CHGCAR
LWAVE = .TRUE.
LCHARG = .TRUE.
