SYSTEM = SrVO3
ISMEAR =  0
SIGMA =  0.05
EDIFF = 1E-8
ALGO = Exact ; NELM=1
LOPTICS = .TRUE.
LWAVE = .TRUE.
NBANDS =96
