SYSTEM = SrVO3
ISMEAR =  0
SIGMA =  0.05
EDIFF = 1E-8
NBANDS =96
ALGO = CRPA
NTARGET_STATES = 1 2 3 
LWAVE = .FALSE.
NCSHMEM=1 
