SrVO3
 3.843
 +1.00000000  +0.0000000000  +0.0000000000
 +0.0000000000  +1.00000000  +0.0000000000
 +0.0000000000  +0.0000000000  +1.0000000000
Sr V O
 1 1 3
Direct
 +0.0000000000  +0.0000000000  +0.0000000000
 +0.5000000000  +0.5000000000  +0.5000000000
 +0.5000000000  +0.5000000000  +0.0000000000
 +0.5000000000  +0.0000000000  +0.5000000000
 +0.0000000000  +0.5000000000  +0.5000000000
