 num_wann  = 3
 num_bands = 3 
 exclude_bands = 1-20, 24-96
 begin projections 
 V:dxy;dxz;dyz
 end projections 

 begin kpoint_path 
  G  0.000  0.000  0.000  X  0.500  0.000  0.000  
  X  0.500  0.000  0.000  M  0.500  0.500  0.000  
  M  0.500  0.500  0.000  R  0.500  0.500  0.500  
  R  0.500  0.500  0.500  G  0.000  0.000  0.000  
 end kpoint_path 
 
 hr_plot= true
 bands_plot = true 
 bands_num_points  = 100
 bands_plot_format = gnuplot xmgrace


begin unit_cell_cart
     3.8430000     0.0000000     0.0000000
     0.0000000     3.8430000     0.0000000
     0.0000000     0.0000000     3.8430000
end unit_cell_cart

begin atoms_cart
Sr       0.0000000     0.0000000     0.0000000
V        1.9215000     1.9215000     1.9215000
O        1.9215000     1.9215000     0.0000000
O        1.9215000     0.0000000     1.9215000
O        0.0000000     1.9215000     1.9215000
end atoms_cart

mp_grid =     4     4     4

begin kpoints
      0.000000000000      0.000000000000      0.000000000000
      0.250000000000      0.000000000000      0.000000000000
      0.500000000000      0.000000000000      0.000000000000
      0.250000000000      0.250000000000      0.000000000000
      0.500000000000      0.250000000000      0.000000000000
      0.500000000000      0.500000000000      0.000000000000
      0.250000000000      0.250000000000      0.250000000000
      0.500000000000      0.250000000000      0.250000000000
      0.500000000000      0.500000000000      0.250000000000
      0.500000000000      0.500000000000      0.500000000000
     -0.250000000000      0.000000000000      0.000000000000
      0.000000000000      0.250000000000      0.000000000000
     -0.250000000000      0.250000000000      0.000000000000
      0.000000000000      0.500000000000      0.000000000000
      0.250000000000     -0.500000000000      0.000000000000
     -0.250000000000      0.500000000000      0.000000000000
      0.000000000000     -0.250000000000      0.000000000000
      0.250000000000     -0.250000000000      0.000000000000
     -0.500000000000     -0.250000000000      0.000000000000
     -0.250000000000     -0.250000000000      0.000000000000
      0.000000000000      0.000000000000      0.250000000000
      0.250000000000      0.000000000000      0.250000000000
     -0.500000000000      0.000000000000      0.250000000000
     -0.250000000000      0.000000000000      0.250000000000
      0.000000000000      0.250000000000      0.250000000000
     -0.250000000000      0.250000000000      0.250000000000
      0.000000000000      0.500000000000      0.250000000000
      0.250000000000      0.500000000000      0.250000000000
     -0.250000000000      0.500000000000      0.250000000000
      0.000000000000     -0.250000000000      0.250000000000
      0.250000000000     -0.250000000000      0.250000000000
     -0.500000000000     -0.250000000000      0.250000000000
     -0.250000000000     -0.250000000000      0.250000000000
      0.000000000000      0.000000000000      0.500000000000
      0.250000000000      0.000000000000      0.500000000000
      0.500000000000      0.000000000000      0.500000000000
     -0.250000000000      0.000000000000     -0.500000000000
      0.000000000000      0.250000000000      0.500000000000
      0.250000000000      0.250000000000      0.500000000000
      0.500000000000      0.250000000000      0.500000000000
     -0.250000000000      0.250000000000      0.500000000000
      0.000000000000      0.500000000000      0.500000000000
      0.250000000000      0.500000000000      0.500000000000
     -0.250000000000     -0.500000000000     -0.500000000000
      0.000000000000     -0.250000000000     -0.500000000000
      0.250000000000     -0.250000000000     -0.500000000000
     -0.500000000000     -0.250000000000     -0.500000000000
     -0.250000000000     -0.250000000000     -0.500000000000
      0.000000000000      0.000000000000     -0.250000000000
      0.250000000000      0.000000000000     -0.250000000000
      0.500000000000      0.000000000000     -0.250000000000
     -0.250000000000      0.000000000000     -0.250000000000
      0.000000000000      0.250000000000     -0.250000000000
      0.250000000000      0.250000000000     -0.250000000000
      0.500000000000      0.250000000000     -0.250000000000
     -0.250000000000      0.250000000000     -0.250000000000
      0.000000000000     -0.500000000000     -0.250000000000
      0.250000000000     -0.500000000000     -0.250000000000
     -0.500000000000     -0.500000000000     -0.250000000000
     -0.250000000000     -0.500000000000     -0.250000000000
      0.000000000000     -0.250000000000     -0.250000000000
      0.250000000000     -0.250000000000     -0.250000000000
     -0.500000000000     -0.250000000000     -0.250000000000
     -0.250000000000     -0.250000000000     -0.250000000000
end kpoints
