SYSTEM = LuNiO3
ENCUT = 500
ICHARG=5

NELMIN = 1000
NELMDL = -1
NELM = 1000

EDIFF = 1.E-12
ISYM = -1 

ISMEAR = 2 
SIGMA=0.01

NSIM = 4 
NCORE = 4
KPAR = 1

LORBIT=14
LMAXMIX=6
EMIN=-2.0
EMAX=8.0
LOCPROJ = 5 6 7 8 : d : Pr

LWAVE = .FALSE.
LCHARG = .FALSE.
