SYSTEM = PrNiO3
ICHARG = 1

EDIFF = 1E-10
ISYM = -1
NELMIN = 10

ISMEAR = -5

LMAXMIX = 6
KPAR=2
LORBIT = 14

LWAVE = TRUE
LCHARG = TRUE

