PrNiO3
1.0000000000000000
     5.4402908379016592   -0.0000000000000001    0.0000000000000000
     0.0000000000000003    5.4197165967367118    0.0000000000000000
     0.0000000000000000    0.0000000000000000    7.6865924864886876
   Pr   Ni   O 
     4     4    12
Direct
  0.9925004811478786  0.0360095115625612  0.2500000000000000
  0.0074995188521214  0.9639904884374388  0.7500000000000000
  0.4925004811478786  0.4639904884374388  0.7500000000000000
  0.5074995188521214  0.5360095115625612  0.2500000000000000
  0.5000000000000000  0.0000000000000000  0.0000000000000000
  0.0000000000000000  0.5000000000000000  0.0000000000000000
  0.5000000000000000  0.0000000000000000  0.5000000000000000
  0.0000000000000000  0.5000000000000000  0.5000000000000000
0.7244596839579465   0.2829997850927632   0.0379419462321593
0.7176953261668324   0.2762354273016492   0.4620580507678369
0.2755403160420465   0.7170002449072392   0.9620580797678429
0.2823046738331605   0.7237646026983533   0.5379419202321571
0.2176953261668395   0.2237645726983508   0.9620580797678429
0.2244596839579535   0.2170002149072368   0.5379419202321571
0.7823046738331676   0.7762353973016467   0.0379419462321593
0.7755403160420535   0.7829997550927608   0.4620580507678369
0.5682970898526349   0.0063067516834749   0.7466178211044430
0.0682971188526338   0.4936932483165251   0.2466178211044430
0.9317029101473651   0.5063067816834774   0.7533821788955570
0.4317028811473662   0.9936932183165226   0.2533821788955570
