SYSTEM = LuNiO3
ENCUT = 500
ICHARG = 1
NBANDS = 128

EDIFF = 1E-8
ISYM = -1 

ISMEAR = -5
SIGMA = 0.01

NCORE = 1

LORBIT = 14
LMAXMIX = 6
EMIN = -2.0
EMAX = 8.0
LOCPROJ = 5 6 7 8 : d : Pr

LWAVE = .TRUE.
LCHARG = .TRUE.
