System  = NiO

EDIFF = 1e-10
ENCUT = 450
NELMIN = 30

ISMEAR = 0
SIGMA = 0.1

# the energy window to optimize projector channels
EMIN = -3
EMAX = 10

NBANDS = 32
LMAXMIX = 6
NEDOS = 3001

# switch off all symmetries
ISYM = -1

# project to Ni d and O p states
LORBIT = 14
LOCPROJ = 1 2 : d : Pr 

# write WAVECAR, CHGCAR
LWAVE = .FALSE.        
LCHARG = .FALSE.
