SYSTEM = CaFeO3 R1+0.20
ENCUT = 600
PREC = Normal
GGA = PS
NBANDS = 128

NELM = 30
EDIFF = 1E-8

ISMEAR = -5
SIGMA = 0.01

NSIM = 4
KPAR = 4
NCORE = 4

LMAXMIX = 4
#LORBIT = 14
NEDOS = 3001
EMIN = -5
EMAX = 10

LWAVE = .FALSE.
LCHARG = .TRUE.

