Ca Fe  O 
 1.0000000000000000
     5.3301100000000003    0.0000000000000000    0.0000000000000000
     0.0000000000000000    5.3212099999999998    0.0000000000000000
     0.0000000000000000    0.0000000000000000    7.4160100000000000
   4   4  12
Cartesian
  0.2311668707000000  5.2848129235999997  1.8540025000000000
  2.8962218707000003  2.6970020763999996  1.8540025000000000
  5.0989431293000003  0.0363970764000000  5.5620075000000000
  2.4338881293000001  2.6242079235999998  5.5620075000000000
  0.0000000000000000  2.6606049999999999  0.0000000000000000
  2.6650550000000002  0.0000000000000000  3.7080050000000000
  0.0000000000000000  2.6606049999999999  3.7080050000000000
  2.6650550000000002  0.0000000000000000  0.0000000000000000
  1.5911977383000002  3.8095074511000000  0.2815117396000000
  4.2562527382999997  4.1723075488999992  3.4264932604000000
  3.7389122617000004  1.5117025488999998  7.1344982604000000
  1.0738572617000000  1.1489024511000001  3.9895167396000000
  1.5089008399000001  3.7273479687000002  3.4264932604000000
  4.1739558399000005  4.2544670312999999  0.2815117396000000
  3.8212091601000000  1.5938620312999998  3.9895167396000000
  1.1561541601000001  1.0667429687000007  7.1344982604000000
  5.2779282231000009  2.2749769113000000  1.9112540972000001
  2.6128732231000003  0.3856280886999999  1.7967509027999999
  0.0521817769000000  3.0462330887000002  5.5047559028000004
  2.7172367769000001  4.9355819112999999  5.6192590971999996
