SYSTEM = SrVO3
ENCUT = 550
PREC = Accurate
ISYM=-1

NELMIN=50
EDIFF = 1.E-10
ISMEAR = 2
SIGMA=0.001

NSIM = 8 
NCORE = 8
KPAR = 1

LMAXMIX=6
LORBIT=14
EMIN = 3.9
EMAX = 7.1
LOCPROJ = 2 : d : Pr

LWAVE = .FALSE.
LCHARG = .TRUE.
