Automatic Mesh
0
Gamma
 15 15 15
  0 0 0

