LuNiO3
1.0000000000000000
     5.1100903374166755   -0.0000000000000000    0.0000000000000000
     0.0000000000000000    5.5516887771009857    0.0000000000000000
     0.0000000000000000    0.0000000000000000    7.2355855945331218
   Lu   Ni   O 
     4     4    12
Direct
  0.9759131789695589  0.0837267538481297  0.2500000000000000
  0.0240868210304412  0.9162732461518703  0.7500000000000000
  0.4759131789695588  0.4162732461518703  0.7500000000000000
  0.5240868210304411  0.5837267538481297  0.2500000000000000
  0.5000000000000000  0.0000000000000000 -0.0000000000000000
 -0.0000000000000000  0.5000000000000000 -0.0000000000000000
  0.5000000000000000  0.0000000000000000  0.5000000000000000
 -0.0000000000000000  0.5000000000000000  0.5000000000000000
0.6944197345054858   0.3128303363850574   0.0551242481553331
0.6827852621715137   0.3011958640510852   0.4448757478446665
0.3055802654945141   0.6871696346149440   0.9448757778446689
0.3172147378284863   0.6988041069489160   0.5551242221553311
0.1827852621715138   0.1988041359489148   0.9448757778446689
0.1944197345054860   0.1871696636149426   0.5551242221553311
0.8172147378284863   0.8011958930510840   0.0551242481553331
0.8055802654945142   0.8128303653850560   0.4448757478446665
0.1164096364173689   0.4611622336091299   0.2441827638330139
0.6164096294173647   0.0388377663908701   0.7441827638330140
0.8835903705826353   0.5388377363908747   0.7558172361669860
0.3835903705826352   0.9611622636091253   0.2558172361669861
