Ni2 O2
1.0
        2.9830770493         0.0000000000         0.0000000000
       -1.4914536502         2.5834752877         0.0000000000
        1.4915832134        -0.8611882101         4.8640027358
   Ni    O
    2    2
Direct
     0.000000000         0.000000000         0.000000000
     0.500000000         0.500000000         0.500000000
     0.250001013         0.749998987         0.249992996
     0.749998987         0.250001013         0.750006974
