Automatically generated mesh
       0
Gamma
 9 9 5
