NdNiO2 SC
1.0
        5.5437150002         0.0000000000         0.0000000000
        0.0000000000         5.5437150002         0.0000000000
        0.0000000000         0.0000000000         3.3099985123
   Nd   Ni    O
    2    2    4
Direct
     0.000000000         0.500000000         0.500000000
     0.500000000         0.000000000         0.500000000
     0.000000000         0.000000000         0.000000000
     0.500000000         0.500000000         0.000000000
     0.250000000         0.250000000         0.000000000
     0.750000000         0.750000000         0.000000000
     0.750000000         0.250000000         0.000000000
     0.250000000         0.750000000         0.000000000
