SYSTEM = LuNiO3-eg-eg
ISMEAR =  0
ENCUT=600
SIGMA =  0.001
EDIFF = 1E-8
ALGO = Exact ; NELM=1
LOPTICS = .TRUE.
LWAVE = .TRUE.
NBANDS =576
NCORE=6
LMAXMIX=4
LORBIT=11
