SYSTEM = LuNiO3-egeg
ENCUT=600
ISMEAR =  0
SIGMA =  0.001
EDIFF = 1E-8
NBANDS =576
ALGO = CRPA
NTARGET_STATES = 1 2 3 4 5 6 7 8
LWAVE = .FALSE.
NCSHMEM=1 
