SYSTEM = LuNiO3-egeg
ISMEAR =  0
SIGMA =  0.001
EDIFF = 1E-8
ENCUT=600
NCORE=6
LMAXMIX=4
LORBIT=11
