SYSTEM = PrNiO3
ICHARG = 1

EDIFF = 1E-10
ISYM = -1

ISMEAR = 0
SIGMA = 0.02

LMAXMIX = 6
LORBIT = 14

LWAVE = TRUE
LCHARG = TRUE

