SYSTEM = PrNiO3
ENCUT = 550
PREC = Normal
NBANDS = 128

NELMIN = 30
EDIFF = 1E-8

ISMEAR = -5
SIGMA = 0.01

KPAR = 4
NCORE = 4

LMAXMIX = 6
#LORBIT = 14
NEDOS = 5001
EMIN = -2.0
EMAX = 8.0

LWAVE = FALSE
LCHARG = TRUE

